p cnf 207 1260
1 -91 0
1 -92 0
91 -91 0
92 -92 0
16 -97 0
16 -98 0
97 -97 0
98 -98 0
31 -103 0
31 -104 0
103 -103 0
104 -104 0
46 -109 0
46 -110 0
109 -109 0
110 -110 0
61 -115 0
61 -116 0
115 -115 0
116 -116 0
76 -121 0
76 -122 0
121 -121 0
122 -122 0
-2 -91 0
-2 -92 0
91 -91 0
92 -92 0
-17 -97 0
-17 -98 0
97 -97 0
98 -98 0
-32 -103 0
-32 -104 0
103 -103 0
104 -104 0
-47 -109 0
-47 -110 0
109 -109 0
110 -110 0
-62 -115 0
-62 -116 0
115 -115 0
116 -116 0
-77 -121 0
-77 -122 0
121 -121 0
122 -122 0
3 -91 0
3 -92 0
91 -91 0
92 -92 0
18 -97 0
18 -98 0
97 -97 0
98 -98 0
33 -103 0
33 -104 0
103 -103 0
104 -104 0
48 -109 0
48 -110 0
109 -109 0
110 -110 0
63 -115 0
63 -116 0
115 -115 0
116 -116 0
78 -121 0
78 -122 0
121 -121 0
122 -122 0
-4 -91 0
-4 -92 0
91 -91 0
92 -92 0
-19 -97 0
-19 -98 0
97 -97 0
98 -98 0
-34 -103 0
-34 -104 0
103 -103 0
104 -104 0
-49 -109 0
-49 -110 0
109 -109 0
110 -110 0
-64 -115 0
-64 -116 0
115 -115 0
116 -116 0
-79 -121 0
-79 -122 0
121 -121 0
122 -122 0
-5 -91 0
-5 -92 0
91 -91 0
92 -92 0
-20 -97 0
-20 -98 0
97 -97 0
98 -98 0
-35 -103 0
-35 -104 0
103 -103 0
104 -104 0
-50 -109 0
-50 -110 0
109 -109 0
110 -110 0
-65 -115 0
-65 -116 0
115 -115 0
116 -116 0
-80 -121 0
-80 -122 0
121 -121 0
122 -122 0
6 -127 -91 0
-6 127 -91 0
6 127 -92 0
-6 -127 -92 0
21 -127 -97 0
-21 127 -97 0
21 127 -98 0
-21 -127 -98 0
36 -127 -103 0
-36 127 -103 0
36 127 -104 0
-36 -127 -104 0
51 -127 -109 0
-51 127 -109 0
51 127 -110 0
-51 -127 -110 0
66 -127 -115 0
-66 127 -115 0
66 127 -116 0
-66 -127 -116 0
81 -127 -121 0
-81 127 -121 0
81 127 -122 0
-81 -127 -122 0
7 -91 0
7 -92 0
91 -91 0
92 -92 0
22 -97 0
22 -98 0
97 -97 0
98 -98 0
37 -103 0
37 -104 0
103 -103 0
104 -104 0
52 -109 0
52 -110 0
109 -109 0
110 -110 0
67 -115 0
67 -116 0
115 -115 0
116 -116 0
82 -121 0
82 -122 0
121 -121 0
122 -122 0
8 -91 0
8 -92 0
91 -91 0
92 -92 0
23 -97 0
23 -98 0
97 -97 0
98 -98 0
38 -103 0
38 -104 0
103 -103 0
104 -104 0
53 -109 0
53 -110 0
109 -109 0
110 -110 0
68 -115 0
68 -116 0
115 -115 0
116 -116 0
83 -121 0
83 -122 0
121 -121 0
122 -122 0
9 -91 0
9 -92 0
91 -91 0
92 -92 0
24 -97 0
24 -98 0
97 -97 0
98 -98 0
39 -103 0
39 -104 0
103 -103 0
104 -104 0
54 -109 0
54 -110 0
109 -109 0
110 -110 0
69 -115 0
69 -116 0
115 -115 0
116 -116 0
84 -121 0
84 -122 0
121 -121 0
122 -122 0
10 -128 -91 0
-10 128 -91 0
10 128 -92 0
-10 -128 -92 0
25 -128 -97 0
-25 128 -97 0
25 128 -98 0
-25 -128 -98 0
40 -128 -103 0
-40 128 -103 0
40 128 -104 0
-40 -128 -104 0
55 -128 -109 0
-55 128 -109 0
55 128 -110 0
-55 -128 -110 0
70 -128 -115 0
-70 128 -115 0
70 128 -116 0
-70 -128 -116 0
85 -128 -121 0
-85 128 -121 0
85 128 -122 0
-85 -128 -122 0
11 -91 0
11 -92 0
91 -91 0
92 -92 0
26 -97 0
26 -98 0
97 -97 0
98 -98 0
41 -103 0
41 -104 0
103 -103 0
104 -104 0
56 -109 0
56 -110 0
109 -109 0
110 -110 0
71 -115 0
71 -116 0
115 -115 0
116 -116 0
86 -121 0
86 -122 0
121 -121 0
122 -122 0
12 -91 0
12 -92 0
91 -91 0
92 -92 0
27 -97 0
27 -98 0
97 -97 0
98 -98 0
42 -103 0
42 -104 0
103 -103 0
104 -104 0
57 -109 0
57 -110 0
109 -109 0
110 -110 0
72 -115 0
72 -116 0
115 -115 0
116 -116 0
87 -121 0
87 -122 0
121 -121 0
122 -122 0
13 -91 0
13 -92 0
91 -91 0
92 -92 0
28 -97 0
28 -98 0
97 -97 0
98 -98 0
43 -103 0
43 -104 0
103 -103 0
104 -104 0
58 -109 0
58 -110 0
109 -109 0
110 -110 0
73 -115 0
73 -116 0
115 -115 0
116 -116 0
88 -121 0
88 -122 0
121 -121 0
122 -122 0
14 -91 0
14 -92 0
91 -91 0
92 -92 0
29 -97 0
29 -98 0
97 -97 0
98 -98 0
44 -103 0
44 -104 0
103 -103 0
104 -104 0
59 -109 0
59 -110 0
109 -109 0
110 -110 0
74 -115 0
74 -116 0
115 -115 0
116 -116 0
89 -121 0
89 -122 0
121 -121 0
122 -122 0
15 -91 0
15 -92 0
91 -91 0
92 -92 0
30 -97 0
30 -98 0
97 -97 0
98 -98 0
45 -103 0
45 -104 0
103 -103 0
104 -104 0
60 -109 0
60 -110 0
109 -109 0
110 -110 0
75 -115 0
75 -116 0
115 -115 0
116 -116 0
90 -121 0
90 -122 0
121 -121 0
122 -122 0
-172 91 0
172 -91 0
-173 92 0
172 -92 0
-172 -91 0
-173 -92 0
-178 91 172 0
178 -91 0
178 -172 0
-179 92 173 0
179 -92 0
179 -173 0
-178 -97 0
-179 -98 0
-184 97 178 0
184 -97 0
184 -178 0
-185 98 179 0
185 -98 0
185 -179 0
-184 -103 0
-185 -104 0
-190 103 184 0
190 -103 0
190 -184 0
-191 104 185 0
191 -104 0
191 -185 0
-190 -109 0
-191 -110 0
-196 109 190 0
196 -109 0
196 -190 0
-197 110 191 0
197 -110 0
197 -191 0
-196 -115 0
-197 -116 0
-202 115 196 0
202 -115 0
202 -196 0
-203 116 197 0
203 -116 0
203 -197 0
-202 -121 0
-203 -122 0
202 0
203 0
1 -93 0
1 -94 0
93 -93 0
94 -94 0
16 -99 0
16 -100 0
99 -99 0
100 -100 0
31 -105 0
31 -106 0
105 -105 0
106 -106 0
46 -111 0
46 -112 0
111 -111 0
112 -112 0
61 -117 0
61 -118 0
117 -117 0
118 -118 0
76 -123 0
76 -124 0
123 -123 0
124 -124 0
-2 -93 0
-2 -94 0
93 -93 0
94 -94 0
-17 -99 0
-17 -100 0
99 -99 0
100 -100 0
-32 -105 0
-32 -106 0
105 -105 0
106 -106 0
-47 -111 0
-47 -112 0
111 -111 0
112 -112 0
-62 -117 0
-62 -118 0
117 -117 0
118 -118 0
-77 -123 0
-77 -124 0
123 -123 0
124 -124 0
3 -93 0
3 -94 0
93 -93 0
94 -94 0
18 -99 0
18 -100 0
99 -99 0
100 -100 0
33 -105 0
33 -106 0
105 -105 0
106 -106 0
48 -111 0
48 -112 0
111 -111 0
112 -112 0
63 -117 0
63 -118 0
117 -117 0
118 -118 0
78 -123 0
78 -124 0
123 -123 0
124 -124 0
-4 -93 0
-4 -94 0
93 -93 0
94 -94 0
-19 -99 0
-19 -100 0
99 -99 0
100 -100 0
-34 -105 0
-34 -106 0
105 -105 0
106 -106 0
-49 -111 0
-49 -112 0
111 -111 0
112 -112 0
-64 -117 0
-64 -118 0
117 -117 0
118 -118 0
-79 -123 0
-79 -124 0
123 -123 0
124 -124 0
-5 -93 0
-5 -94 0
93 -93 0
94 -94 0
-20 -99 0
-20 -100 0
99 -99 0
100 -100 0
-35 -105 0
-35 -106 0
105 -105 0
106 -106 0
-50 -111 0
-50 -112 0
111 -111 0
112 -112 0
-65 -117 0
-65 -118 0
117 -117 0
118 -118 0
-80 -123 0
-80 -124 0
123 -123 0
124 -124 0
-6 -93 0
-6 -94 0
93 -93 0
94 -94 0
-21 -99 0
-21 -100 0
99 -99 0
100 -100 0
-36 -105 0
-36 -106 0
105 -105 0
106 -106 0
-51 -111 0
-51 -112 0
111 -111 0
112 -112 0
-66 -117 0
-66 -118 0
117 -117 0
118 -118 0
-81 -123 0
-81 -124 0
123 -123 0
124 -124 0
7 -129 -93 0
-7 129 -93 0
7 129 -94 0
-7 -129 -94 0
22 -129 -99 0
-22 129 -99 0
22 129 -100 0
-22 -129 -100 0
37 -129 -105 0
-37 129 -105 0
37 129 -106 0
-37 -129 -106 0
52 -129 -111 0
-52 129 -111 0
52 129 -112 0
-52 -129 -112 0
67 -129 -117 0
-67 129 -117 0
67 129 -118 0
-67 -129 -118 0
82 -129 -123 0
-82 129 -123 0
82 129 -124 0
-82 -129 -124 0
8 -130 -93 0
-8 130 -93 0
8 130 -94 0
-8 -130 -94 0
23 -130 -99 0
-23 130 -99 0
23 130 -100 0
-23 -130 -100 0
38 -130 -105 0
-38 130 -105 0
38 130 -106 0
-38 -130 -106 0
53 -130 -111 0
-53 130 -111 0
53 130 -112 0
-53 -130 -112 0
68 -130 -117 0
-68 130 -117 0
68 130 -118 0
-68 -130 -118 0
83 -130 -123 0
-83 130 -123 0
83 130 -124 0
-83 -130 -124 0
9 -131 -93 0
-9 131 -93 0
9 131 -94 0
-9 -131 -94 0
24 -131 -99 0
-24 131 -99 0
24 131 -100 0
-24 -131 -100 0
39 -131 -105 0
-39 131 -105 0
39 131 -106 0
-39 -131 -106 0
54 -131 -111 0
-54 131 -111 0
54 131 -112 0
-54 -131 -112 0
69 -131 -117 0
-69 131 -117 0
69 131 -118 0
-69 -131 -118 0
84 -131 -123 0
-84 131 -123 0
84 131 -124 0
-84 -131 -124 0
-10 -93 0
-10 -94 0
93 -93 0
94 -94 0
-25 -99 0
-25 -100 0
99 -99 0
100 -100 0
-40 -105 0
-40 -106 0
105 -105 0
106 -106 0
-55 -111 0
-55 -112 0
111 -111 0
112 -112 0
-70 -117 0
-70 -118 0
117 -117 0
118 -118 0
-85 -123 0
-85 -124 0
123 -123 0
124 -124 0
11 -93 0
11 -94 0
93 -93 0
94 -94 0
26 -99 0
26 -100 0
99 -99 0
100 -100 0
41 -105 0
41 -106 0
105 -105 0
106 -106 0
56 -111 0
56 -112 0
111 -111 0
112 -112 0
71 -117 0
71 -118 0
117 -117 0
118 -118 0
86 -123 0
86 -124 0
123 -123 0
124 -124 0
12 -93 0
12 -94 0
93 -93 0
94 -94 0
27 -99 0
27 -100 0
99 -99 0
100 -100 0
42 -105 0
42 -106 0
105 -105 0
106 -106 0
57 -111 0
57 -112 0
111 -111 0
112 -112 0
72 -117 0
72 -118 0
117 -117 0
118 -118 0
87 -123 0
87 -124 0
123 -123 0
124 -124 0
-13 -93 0
-13 -94 0
93 -93 0
94 -94 0
-28 -99 0
-28 -100 0
99 -99 0
100 -100 0
-43 -105 0
-43 -106 0
105 -105 0
106 -106 0
-58 -111 0
-58 -112 0
111 -111 0
112 -112 0
-73 -117 0
-73 -118 0
117 -117 0
118 -118 0
-88 -123 0
-88 -124 0
123 -123 0
124 -124 0
14 -93 0
14 -94 0
93 -93 0
94 -94 0
29 -99 0
29 -100 0
99 -99 0
100 -100 0
44 -105 0
44 -106 0
105 -105 0
106 -106 0
59 -111 0
59 -112 0
111 -111 0
112 -112 0
74 -117 0
74 -118 0
117 -117 0
118 -118 0
89 -123 0
89 -124 0
123 -123 0
124 -124 0
15 -93 0
15 -94 0
93 -93 0
94 -94 0
30 -99 0
30 -100 0
99 -99 0
100 -100 0
45 -105 0
45 -106 0
105 -105 0
106 -106 0
60 -111 0
60 -112 0
111 -111 0
112 -112 0
75 -117 0
75 -118 0
117 -117 0
118 -118 0
90 -123 0
90 -124 0
123 -123 0
124 -124 0
-174 93 0
174 -93 0
-175 94 0
174 -94 0
-174 -93 0
-175 -94 0
-180 93 174 0
180 -93 0
180 -174 0
-181 94 175 0
181 -94 0
181 -175 0
-180 -99 0
-181 -100 0
-186 99 180 0
186 -99 0
186 -180 0
-187 100 181 0
187 -100 0
187 -181 0
-186 -105 0
-187 -106 0
-192 105 186 0
192 -105 0
192 -186 0
-193 106 187 0
193 -106 0
193 -187 0
-192 -111 0
-193 -112 0
-198 111 192 0
198 -111 0
198 -192 0
-199 112 193 0
199 -112 0
199 -193 0
-198 -117 0
-199 -118 0
-204 117 198 0
204 -117 0
204 -198 0
-205 118 199 0
205 -118 0
205 -199 0
-204 -123 0
-205 -124 0
204 0
205 0
1 -95 0
1 -96 0
95 -95 0
96 -96 0
16 -101 0
16 -102 0
101 -101 0
102 -102 0
31 -107 0
31 -108 0
107 -107 0
108 -108 0
46 -113 0
46 -114 0
113 -113 0
114 -114 0
61 -119 0
61 -120 0
119 -119 0
120 -120 0
76 -125 0
76 -126 0
125 -125 0
126 -126 0
-2 -95 0
-2 -96 0
95 -95 0
96 -96 0
-17 -101 0
-17 -102 0
101 -101 0
102 -102 0
-32 -107 0
-32 -108 0
107 -107 0
108 -108 0
-47 -113 0
-47 -114 0
113 -113 0
114 -114 0
-62 -119 0
-62 -120 0
119 -119 0
120 -120 0
-77 -125 0
-77 -126 0
125 -125 0
126 -126 0
3 -95 0
3 -96 0
95 -95 0
96 -96 0
18 -101 0
18 -102 0
101 -101 0
102 -102 0
33 -107 0
33 -108 0
107 -107 0
108 -108 0
48 -113 0
48 -114 0
113 -113 0
114 -114 0
63 -119 0
63 -120 0
119 -119 0
120 -120 0
78 -125 0
78 -126 0
125 -125 0
126 -126 0
-4 -95 0
-4 -96 0
95 -95 0
96 -96 0
-19 -101 0
-19 -102 0
101 -101 0
102 -102 0
-34 -107 0
-34 -108 0
107 -107 0
108 -108 0
-49 -113 0
-49 -114 0
113 -113 0
114 -114 0
-64 -119 0
-64 -120 0
119 -119 0
120 -120 0
-79 -125 0
-79 -126 0
125 -125 0
126 -126 0
-5 -95 0
-5 -96 0
95 -95 0
96 -96 0
-20 -101 0
-20 -102 0
101 -101 0
102 -102 0
-35 -107 0
-35 -108 0
107 -107 0
108 -108 0
-50 -113 0
-50 -114 0
113 -113 0
114 -114 0
-65 -119 0
-65 -120 0
119 -119 0
120 -120 0
-80 -125 0
-80 -126 0
125 -125 0
126 -126 0
-6 -95 0
-6 -96 0
95 -95 0
96 -96 0
-21 -101 0
-21 -102 0
101 -101 0
102 -102 0
-36 -107 0
-36 -108 0
107 -107 0
108 -108 0
-51 -113 0
-51 -114 0
113 -113 0
114 -114 0
-66 -119 0
-66 -120 0
119 -119 0
120 -120 0
-81 -125 0
-81 -126 0
125 -125 0
126 -126 0
7 -132 -95 0
-7 132 -95 0
7 132 -96 0
-7 -132 -96 0
22 -132 -101 0
-22 132 -101 0
22 132 -102 0
-22 -132 -102 0
37 -132 -107 0
-37 132 -107 0
37 132 -108 0
-37 -132 -108 0
52 -132 -113 0
-52 132 -113 0
52 132 -114 0
-52 -132 -114 0
67 -132 -119 0
-67 132 -119 0
67 132 -120 0
-67 -132 -120 0
82 -132 -125 0
-82 132 -125 0
82 132 -126 0
-82 -132 -126 0
8 -133 -95 0
-8 133 -95 0
8 133 -96 0
-8 -133 -96 0
23 -133 -101 0
-23 133 -101 0
23 133 -102 0
-23 -133 -102 0
38 -133 -107 0
-38 133 -107 0
38 133 -108 0
-38 -133 -108 0
53 -133 -113 0
-53 133 -113 0
53 133 -114 0
-53 -133 -114 0
68 -133 -119 0
-68 133 -119 0
68 133 -120 0
-68 -133 -120 0
83 -133 -125 0
-83 133 -125 0
83 133 -126 0
-83 -133 -126 0
9 -134 -95 0
-9 134 -95 0
9 134 -96 0
-9 -134 -96 0
24 -134 -101 0
-24 134 -101 0
24 134 -102 0
-24 -134 -102 0
39 -134 -107 0
-39 134 -107 0
39 134 -108 0
-39 -134 -108 0
54 -134 -113 0
-54 134 -113 0
54 134 -114 0
-54 -134 -114 0
69 -134 -119 0
-69 134 -119 0
69 134 -120 0
-69 -134 -120 0
84 -134 -125 0
-84 134 -125 0
84 134 -126 0
-84 -134 -126 0
10 -135 -95 0
-10 135 -95 0
10 135 -96 0
-10 -135 -96 0
25 -135 -101 0
-25 135 -101 0
25 135 -102 0
-25 -135 -102 0
40 -135 -107 0
-40 135 -107 0
40 135 -108 0
-40 -135 -108 0
55 -135 -113 0
-55 135 -113 0
55 135 -114 0
-55 -135 -114 0
70 -135 -119 0
-70 135 -119 0
70 135 -120 0
-70 -135 -120 0
85 -135 -125 0
-85 135 -125 0
85 135 -126 0
-85 -135 -126 0
11 -95 0
11 -96 0
95 -95 0
96 -96 0
26 -101 0
26 -102 0
101 -101 0
102 -102 0
41 -107 0
41 -108 0
107 -107 0
108 -108 0
56 -113 0
56 -114 0
113 -113 0
114 -114 0
71 -119 0
71 -120 0
119 -119 0
120 -120 0
86 -125 0
86 -126 0
125 -125 0
126 -126 0
12 -95 0
12 -96 0
95 -95 0
96 -96 0
27 -101 0
27 -102 0
101 -101 0
102 -102 0
42 -107 0
42 -108 0
107 -107 0
108 -108 0
57 -113 0
57 -114 0
113 -113 0
114 -114 0
72 -119 0
72 -120 0
119 -119 0
120 -120 0
87 -125 0
87 -126 0
125 -125 0
126 -126 0
13 -95 0
13 -96 0
95 -95 0
96 -96 0
28 -101 0
28 -102 0
101 -101 0
102 -102 0
43 -107 0
43 -108 0
107 -107 0
108 -108 0
58 -113 0
58 -114 0
113 -113 0
114 -114 0
73 -119 0
73 -120 0
119 -119 0
120 -120 0
88 -125 0
88 -126 0
125 -125 0
126 -126 0
14 -136 -95 0
-14 136 -95 0
14 136 -96 0
-14 -136 -96 0
29 -136 -101 0
-29 136 -101 0
29 136 -102 0
-29 -136 -102 0
44 -136 -107 0
-44 136 -107 0
44 136 -108 0
-44 -136 -108 0
59 -136 -113 0
-59 136 -113 0
59 136 -114 0
-59 -136 -114 0
74 -136 -119 0
-74 136 -119 0
74 136 -120 0
-74 -136 -120 0
89 -136 -125 0
-89 136 -125 0
89 136 -126 0
-89 -136 -126 0
15 -95 0
15 -96 0
95 -95 0
96 -96 0
30 -101 0
30 -102 0
101 -101 0
102 -102 0
45 -107 0
45 -108 0
107 -107 0
108 -108 0
60 -113 0
60 -114 0
113 -113 0
114 -114 0
75 -119 0
75 -120 0
119 -119 0
120 -120 0
90 -125 0
90 -126 0
125 -125 0
126 -126 0
-176 95 0
176 -95 0
-177 96 0
176 -96 0
-176 -95 0
-177 -96 0
-182 95 176 0
182 -95 0
182 -176 0
-183 96 177 0
183 -96 0
183 -177 0
-182 -101 0
-183 -102 0
-188 101 182 0
188 -101 0
188 -182 0
-189 102 183 0
189 -102 0
189 -183 0
-188 -107 0
-189 -108 0
-194 107 188 0
194 -107 0
194 -188 0
-195 108 189 0
195 -108 0
195 -189 0
-194 -113 0
-195 -114 0
-200 113 194 0
200 -113 0
200 -194 0
-201 114 195 0
201 -114 0
201 -195 0
-200 -119 0
-201 -120 0
-206 119 200 0
206 -119 0
206 -200 0
-207 120 201 0
207 -120 0
207 -201 0
-206 -125 0
-207 -126 0
206 0
207 0
-91 98 104 110 116 122 0
-92 0
-97 104 110 116 122 0
-98 91 0
-103 110 116 122 0
-104 91 97 0
-109 116 122 0
-110 91 97 103 0
-115 122 0
-116 91 97 103 109 0
-121 0
-122 91 97 103 109 115 0
-93 100 106 112 118 124 0
-94 0
-99 106 112 118 124 0
-100 93 0
-105 112 118 124 0
-106 93 99 0
-111 118 124 0
-112 93 99 105 0
-117 124 0
-118 93 99 105 111 0
-123 0
-124 93 99 105 111 117 0
-95 102 108 114 120 126 0
-96 0
-101 108 114 120 126 0
-102 95 0
-107 114 120 126 0
-108 95 101 0
-113 120 126 0
-114 95 101 107 0
-119 126 0
-120 95 101 107 113 0
-125 0
-126 95 101 107 113 119 0
